p cnf 619 1309
-1 2 0
3 2 0
1 -3 -2 0
4 -2 0
-4 2 0
-5 6 0
7 6 0
5 -7 -6 0
8 -6 0
-8 6 0
-9 10 0
11 10 0
9 -11 -10 0
12 -10 0
-12 10 0
-13 14 0
15 14 0
13 -15 -14 0
16 -14 0
-16 14 0
-17 18 0
19 18 0
17 -19 -18 0
20 -18 0
-20 18 0
-21 22 0
23 22 0
21 -23 -22 0
24 -22 0
-24 22 0
-25 26 0
27 26 0
25 -27 -26 0
28 -26 0
-28 26 0
-29 30 0
31 30 0
29 -31 -30 0
32 -30 0
-32 30 0
-33 34 0
35 34 0
33 -35 -34 0
36 -34 0
-36 34 0
-37 38 0
39 38 0
37 -39 -38 0
40 -38 0
-40 38 0
-41 42 0
43 42 0
41 -43 -42 0
44 -42 0
-44 42 0
-45 46 0
47 46 0
45 -47 -46 0
48 -46 0
-48 46 0
-49 50 0
51 50 0
49 -51 -50 0
52 -50 0
-52 50 0
-53 54 0
55 54 0
53 -55 -54 0
56 -54 0
-56 54 0
-57 58 0
59 58 0
57 -59 -58 0
60 -58 0
-60 58 0
-61 62 0
63 62 0
61 -63 -62 0
64 -62 0
-64 62 0
-65 66 0
67 66 0
65 -67 -66 0
68 -66 0
-68 66 0
-69 70 0
71 70 0
69 -71 -70 0
72 -70 0
-72 70 0
-73 74 0
75 74 0
73 -75 -74 0
76 -74 0
-76 74 0
-77 78 0
79 78 0
77 -79 -78 0
80 -78 0
-80 78 0
-81 82 0
83 82 0
81 -83 -82 0
84 -82 0
-84 82 0
-85 86 0
87 86 0
85 -87 -86 0
88 -86 0
-88 86 0
-89 90 0
91 90 0
89 -91 -90 0
92 -90 0
-92 90 0
-93 94 0
95 94 0
93 -95 -94 0
96 -94 0
-96 94 0
-97 98 0
99 98 0
97 -99 -98 0
100 -98 0
-100 98 0
-101 102 0
103 102 0
101 -103 -102 0
104 -102 0
-104 102 0
-105 106 0
107 106 0
105 -107 -106 0
108 -106 0
-108 106 0
-109 110 0
111 110 0
109 -111 -110 0
112 -110 0
-112 110 0
-113 114 0
115 114 0
113 -115 -114 0
116 -114 0
-116 114 0
-117 118 0
119 118 0
117 -119 -118 0
120 -118 0
-120 118 0
-121 122 0
123 122 0
121 -123 -122 0
124 -122 0
-124 122 0
-125 126 0
127 126 0
125 -127 -126 0
128 -126 0
-128 126 0
-129 130 0
131 130 0
129 -131 -130 0
132 -130 0
-132 130 0
-133 134 0
135 134 0
133 -135 -134 0
136 -134 0
-136 134 0
-137 138 0
139 138 0
137 -139 -138 0
140 -138 0
-140 138 0
-141 142 0
143 142 0
141 -143 -142 0
144 -142 0
-144 142 0
-145 146 0
147 146 0
145 -147 -146 0
148 -146 0
-148 146 0
-149 150 0
151 150 0
149 -151 -150 0
152 -150 0
-152 150 0
-153 154 0
155 154 0
153 -155 -154 0
156 -154 0
-156 154 0
-157 158 0
159 158 0
157 -159 -158 0
160 -158 0
-160 158 0
-161 162 0
163 162 0
161 -163 -162 0
164 -162 0
-164 162 0
-165 166 0
167 166 0
165 -167 -166 0
168 -166 0
-168 166 0
-169 170 0
171 170 0
169 -171 -170 0
172 -170 0
-172 170 0
-173 174 0
175 174 0
173 -175 -174 0
176 -174 0
-176 174 0
-177 178 0
179 178 0
177 -179 -178 0
180 -178 0
-180 178 0
-181 182 0
183 182 0
181 -183 -182 0
184 -182 0
-184 182 0
-185 186 0
187 186 0
185 -187 -186 0
188 -186 0
-188 186 0
-189 190 0
191 190 0
189 -191 -190 0
192 -190 0
-192 190 0
-193 194 0
195 194 0
193 -195 -194 0
196 -194 0
-196 194 0
-197 198 0
199 198 0
197 -199 -198 0
200 -198 0
-200 198 0
-201 202 0
203 202 0
201 -203 -202 0
204 -202 0
-204 202 0
-205 206 0
207 206 0
205 -207 -206 0
208 -206 0
-208 206 0
-209 210 0
211 210 0
209 -211 -210 0
212 -210 0
-212 210 0
-213 214 0
215 214 0
213 -215 -214 0
216 -214 0
-216 214 0
-217 218 0
219 218 0
217 -219 -218 0
220 -218 0
-220 218 0
-221 222 0
223 222 0
221 -223 -222 0
224 -222 0
-224 222 0
-225 226 0
227 226 0
225 -227 -226 0
228 -226 0
-228 226 0
-229 230 0
231 230 0
229 -231 -230 0
232 -230 0
-232 230 0
-233 234 0
235 234 0
233 -235 -234 0
236 -234 0
-236 234 0
-237 238 0
239 238 0
237 -239 -238 0
240 -238 0
-240 238 0
-241 242 0
243 242 0
241 -243 -242 0
244 -242 0
-244 242 0
-245 246 0
247 246 0
245 -247 -246 0
248 -246 0
-248 246 0
-249 250 0
251 250 0
249 -251 -250 0
252 -250 0
-252 250 0
-253 254 0
255 254 0
253 -255 -254 0
256 -254 0
-256 254 0
-257 258 0
259 258 0
257 -259 -258 0
260 -258 0
-260 258 0
-261 262 0
263 262 0
261 -263 -262 0
264 -262 0
-264 262 0
-265 266 0
267 266 0
265 -267 -266 0
268 -266 0
-268 266 0
-269 270 0
271 270 0
269 -271 -270 0
272 -270 0
-272 270 0
-273 274 0
275 274 0
273 -275 -274 0
276 -274 0
-276 274 0
-277 278 0
-5 -279 278 0
5 277 -278 0
277 279 -278 0
1 -278 0
-1 278 0
-280 281 0
-9 -282 281 0
9 280 -281 0
280 282 -281 0
5 -281 0
-5 281 0
-283 284 0
-13 -285 284 0
13 283 -284 0
283 285 -284 0
9 -284 0
-9 284 0
-286 287 0
-17 -288 287 0
17 286 -287 0
286 288 -287 0
13 -287 0
-13 287 0
-289 290 0
-280 -291 290 0
-283 -282 -291 290 0
-286 -282 -285 -291 290 0
280 283 286 289 -290 0
283 286 289 291 -290 0
280 282 286 289 -290 0
282 286 289 291 -290 0
280 286 289 291 -290 0
286 289 291 -290 0
280 282 283 289 -290 0
282 283 289 291 -290 0
280 282 289 -290 0
282 289 291 -290 0
280 282 289 291 -290 0
280 283 285 289 -290 0
283 285 289 291 -290 0
280 282 285 289 -290 0
282 285 289 291 -290 0
280 285 289 291 -290 0
285 289 291 -290 0
280 283 289 291 -290 0
283 289 291 -290 0
280 289 291 -290 0
289 291 -290 0
17 -290 0
-17 290 0
-292 293 0
-25 -294 293 0
25 292 -293 0
292 294 -293 0
21 -293 0
-21 293 0
-295 296 0
-29 -297 296 0
29 295 -296 0
295 297 -296 0
25 -296 0
-25 296 0
-298 299 0
-33 -300 299 0
33 298 -299 0
298 300 -299 0
29 -299 0
-29 299 0
33 -301 0
301 -33 0
-302 303 0
-41 -304 303 0
41 302 -303 0
302 304 -303 0
37 -303 0
-37 303 0
41 -305 0
305 -41 0
-306 307 0
-49 -308 307 0
49 306 -307 0
306 308 -307 0
45 -307 0
-45 307 0
-309 310 0
-53 -311 310 0
53 309 -310 0
309 311 -310 0
49 -310 0
-49 310 0
-312 313 0
-57 -314 313 0
57 312 -313 0
312 314 -313 0
53 -313 0
-53 313 0
-315 316 0
-61 -317 316 0
61 315 -316 0
315 317 -316 0
57 -316 0
-57 316 0
-318 319 0
-65 -320 319 0
65 318 -319 0
318 320 -319 0
61 -319 0
-61 319 0
-321 322 0
-69 -323 322 0
69 321 -322 0
321 323 -322 0
65 -322 0
-65 322 0
-324 325 0
-21 -326 325 0
21 324 -325 0
324 326 -325 0
69 -325 0
-69 325 0
-327 328 0
-77 -329 328 0
77 327 -328 0
327 329 -328 0
73 -328 0
-73 328 0
-330 331 0
-65 -332 331 0
65 330 -331 0
330 332 -331 0
77 -331 0
-77 331 0
-333 334 0
-25 -335 334 0
25 333 -334 0
333 335 -334 0
81 -334 0
-81 334 0
-336 337 0
-89 -338 337 0
89 336 -337 0
336 338 -337 0
85 -337 0
-85 337 0
339 -340 0
-93 -341 339 0
93 340 -339 0
340 341 -339 0
89 -339 0
-89 339 0
-342 343 0
-97 -344 343 0
97 342 -343 0
342 344 -343 0
93 -343 0
-93 343 0
-345 346 0
-101 -347 346 0
101 345 -346 0
345 347 -346 0
97 -346 0
-97 346 0
-348 349 0
-105 -350 349 0
105 348 -349 0
348 350 -349 0
101 -349 0
-101 349 0
351 -352 0
-345 -353 351 0
-348 -347 -353 351 0
345 348 352 -351 0
348 352 353 -351 0
345 347 352 -351 0
347 352 353 -351 0
345 352 353 -351 0
352 353 -351 0
105 -351 0
-105 351 0
-354 355 0
-113 -356 355 0
113 354 -355 0
354 356 -355 0
109 -355 0
-109 355 0
357 -358 0
-41 -359 357 0
41 358 -357 0
358 359 -357 0
113 -357 0
-113 357 0
-360 361 0
-121 -362 361 0
121 360 -361 0
360 362 -361 0
117 -361 0
-117 361 0
-363 364 0
-125 -365 364 0
125 363 -364 0
363 365 -364 0
121 -364 0
-121 364 0
366 -367 0
-129 -368 366 0
129 367 -366 0
367 368 -366 0
125 -366 0
-125 366 0
369 -370 0
-133 -371 369 0
133 370 -369 0
370 371 -369 0
129 -369 0
-129 369 0
-372 373 0
-137 -374 373 0
137 372 -373 0
372 374 -373 0
133 -373 0
-133 373 0
-375 376 0
-372 -377 376 0
372 375 -376 0
375 377 -376 0
137 -376 0
-137 376 0
-378 379 0
-145 -380 379 0
145 378 -379 0
378 380 -379 0
141 -379 0
-141 379 0
-381 382 0
-149 -383 382 0
149 381 -382 0
381 383 -382 0
145 -382 0
-145 382 0
384 -385 0
-153 -386 384 0
153 385 -384 0
385 386 -384 0
149 -384 0
-149 384 0
-387 388 0
-157 -389 388 0
157 387 -388 0
387 389 -388 0
153 -388 0
-153 388 0
-390 391 0
-387 -392 391 0
387 390 -391 0
390 392 -391 0
157 -391 0
-157 391 0
-393 394 0
-165 -395 394 0
165 393 -394 0
393 395 -394 0
161 -394 0
-161 394 0
-396 397 0
-169 -398 397 0
169 396 -397 0
396 398 -397 0
165 -397 0
-165 397 0
-399 400 0
-173 -401 400 0
173 399 -400 0
399 401 -400 0
169 -400 0
-169 400 0
402 -403 0
-177 -404 402 0
177 403 -402 0
403 404 -402 0
173 -402 0
-173 402 0
-405 406 0
-181 -407 406 0
181 405 -406 0
405 407 -406 0
177 -406 0
-177 406 0
-408 409 0
-185 -410 409 0
185 408 -409 0
408 410 -409 0
181 -409 0
-181 409 0
-411 412 0
-405 -413 412 0
-407 -413 -408 412 0
405 407 411 -412 0
407 411 413 -412 0
405 411 413 -412 0
411 413 -412 0
405 408 411 -412 0
408 411 413 -412 0
185 -412 0
-185 412 0
-414 415 0
-193 -416 415 0
193 414 -415 0
414 416 -415 0
189 -415 0
-189 415 0
-417 418 0
-197 -419 418 0
197 417 -418 0
417 419 -418 0
193 -418 0
-193 418 0
420 -421 0
-201 -422 420 0
201 421 -420 0
421 422 -420 0
197 -420 0
-197 420 0
-423 424 0
-205 -425 424 0
205 423 -424 0
423 425 -424 0
201 -424 0
-201 424 0
-426 427 0
-209 -428 427 0
209 426 -427 0
426 428 -427 0
205 -427 0
-205 427 0
-429 430 0
-213 -431 430 0
213 429 -430 0
429 431 -430 0
209 -430 0
-209 430 0
-432 433 0
-423 -434 433 0
-426 -425 -434 433 0
-435 0
423 425 426 432 -433 0
425 426 432 434 -433 0
423 425 432 -433 0
425 432 434 -433 0
423 425 432 434 -433 0
423 426 428 432 -433 0
426 428 432 434 -433 0
423 425 428 432 -433 0
425 428 432 434 -433 0
423 428 432 434 -433 0
428 432 434 -433 0
423 426 432 434 -433 0
426 432 434 -433 0
423 432 434 -433 0
432 434 -433 0
423 426 429 432 -433 0
426 429 432 434 -433 0
423 425 429 432 -433 0
425 429 432 434 -433 0
423 429 432 434 -433 0
429 432 434 -433 0
213 -433 0
-213 433 0
-436 437 0
-221 -438 437 0
221 436 -437 0
436 438 -437 0
217 -437 0
-217 437 0
439 -440 0
-225 -441 439 0
225 440 -439 0
440 441 -439 0
221 -439 0
-221 439 0
-442 443 0
-229 -444 443 0
229 442 -443 0
442 444 -443 0
225 -443 0
-225 443 0
-445 446 0
-233 -447 446 0
233 445 -446 0
445 447 -446 0
229 -446 0
-229 446 0
-448 449 0
-442 -450 449 0
-445 -444 -450 449 0
442 445 448 -449 0
445 448 450 -449 0
442 444 448 -449 0
444 448 450 -449 0
442 448 450 -449 0
448 450 -449 0
233 -449 0
-233 449 0
-451 452 0
-241 -453 452 0
241 451 -452 0
451 453 -452 0
237 -452 0
-237 452 0
454 -455 0
-177 -456 454 0
177 455 -454 0
455 456 -454 0
241 -454 0
-241 454 0
-457 458 0
-249 -459 458 0
249 457 -458 0
457 459 -458 0
245 -458 0
-245 458 0
460 -461 0
-253 -462 460 0
253 461 -460 0
461 462 -460 0
249 -460 0
-249 460 0
253 -463 0
463 -253 0
-464 465 0
-261 -466 465 0
261 464 -465 0
464 466 -465 0
257 -465 0
-257 465 0
467 -468 0
-265 -469 467 0
265 468 -467 0
468 469 -467 0
261 -467 0
-261 467 0
-470 471 0
-269 -472 471 0
269 470 -471 0
470 472 -471 0
265 -471 0
-265 471 0
-473 474 0
-273 -475 474 0
273 473 -474 0
473 475 -474 0
269 -474 0
-269 474 0
-476 477 0
-470 -478 477 0
-472 -478 -473 477 0
470 472 476 -477 0
472 476 478 -477 0
470 476 478 -477 0
476 478 -477 0
470 473 476 -477 0
473 476 478 -477 0
273 -477 0
-273 477 0
479 -279 -480 0
279 -479 -480 0
-479 -279 480 0
279 479 480 0
-480 0
481 -282 -482 0
282 -481 -482 0
-481 -282 482 0
282 481 482 0
-482 0
483 -285 -484 0
285 -483 -484 0
-483 -285 484 0
285 483 484 0
-484 0
485 -288 -486 0
288 -485 -486 0
-485 -288 486 0
288 485 486 0
-486 0
487 -291 -488 0
291 -487 -488 0
-487 -291 488 0
291 487 488 0
-488 0
489 -294 -490 0
294 -489 -490 0
-489 -294 490 0
294 489 490 0
-490 0
491 -297 -492 0
297 -491 -492 0
-491 -297 492 0
297 491 492 0
-492 0
493 -300 -494 0
300 -493 -494 0
-493 -300 494 0
300 493 494 0
-494 0
495 -496 -497 0
496 -495 -497 0
-495 -496 497 0
496 495 497 0
-497 0
498 -304 -499 0
304 -498 -499 0
-498 -304 499 0
304 498 499 0
-499 0
500 -501 -502 0
501 -500 -502 0
-500 -501 502 0
501 500 502 0
-502 0
503 -308 -504 0
308 -503 -504 0
-503 -308 504 0
308 503 504 0
-504 0
505 -311 -506 0
311 -505 -506 0
-505 -311 506 0
311 505 506 0
-506 0
507 -314 -508 0
314 -507 -508 0
-507 -314 508 0
314 507 508 0
-508 0
509 -317 -510 0
317 -509 -510 0
-509 -317 510 0
317 509 510 0
-510 0
511 -320 -512 0
320 -511 -512 0
-511 -320 512 0
320 511 512 0
-512 0
513 -323 -514 0
323 -513 -514 0
-513 -323 514 0
323 513 514 0
-514 0
515 -326 -516 0
326 -515 -516 0
-515 -326 516 0
326 515 516 0
-516 0
517 -329 -518 0
329 -517 -518 0
-517 -329 518 0
329 517 518 0
-518 0
519 -332 -520 0
332 -519 -520 0
-519 -332 520 0
332 519 520 0
-520 0
521 -335 -522 0
335 -521 -522 0
-521 -335 522 0
335 521 522 0
-522 0
523 -338 -524 0
338 -523 -524 0
-523 -338 524 0
338 523 524 0
-524 0
525 -341 -526 0
341 -525 -526 0
-525 -341 526 0
341 525 526 0
-526 0
527 -344 -528 0
344 -527 -528 0
-527 -344 528 0
344 527 528 0
-528 0
529 -347 -530 0
347 -529 -530 0
-529 -347 530 0
347 529 530 0
-530 0
531 -350 -532 0
350 -531 -532 0
-531 -350 532 0
350 531 532 0
-532 0
533 -353 -534 0
353 -533 -534 0
-533 -353 534 0
353 533 534 0
-534 0
535 -356 -536 0
356 -535 -536 0
-535 -356 536 0
356 535 536 0
-536 0
537 -359 -538 0
359 -537 -538 0
-537 -359 538 0
359 537 538 0
-538 0
539 -362 -540 0
362 -539 -540 0
-539 -362 540 0
362 539 540 0
-540 0
541 -365 -542 0
365 -541 -542 0
-541 -365 542 0
365 541 542 0
-542 0
543 -368 -544 0
368 -543 -544 0
-543 -368 544 0
368 543 544 0
-544 0
545 -371 -546 0
371 -545 -546 0
-545 -371 546 0
371 545 546 0
-546 0
547 -374 -548 0
374 -547 -548 0
-547 -374 548 0
374 547 548 0
-548 0
549 -377 -550 0
377 -549 -550 0
-549 -377 550 0
377 549 550 0
-550 0
551 -380 -552 0
380 -551 -552 0
-551 -380 552 0
380 551 552 0
-552 0
553 -383 -554 0
383 -553 -554 0
-553 -383 554 0
383 553 554 0
-554 0
555 -386 -556 0
386 -555 -556 0
-555 -386 556 0
386 555 556 0
-556 0
557 -389 -558 0
389 -557 -558 0
-557 -389 558 0
389 557 558 0
-558 0
559 -392 -560 0
392 -559 -560 0
-559 -392 560 0
392 559 560 0
-560 0
561 -395 -562 0
395 -561 -562 0
-561 -395 562 0
395 561 562 0
-562 0
563 -398 -564 0
398 -563 -564 0
-563 -398 564 0
398 563 564 0
-564 0
565 -401 -566 0
401 -565 -566 0
-565 -401 566 0
401 565 566 0
-566 0
567 -404 -568 0
404 -567 -568 0
-567 -404 568 0
404 567 568 0
-568 0
569 -407 -570 0
407 -569 -570 0
-569 -407 570 0
407 569 570 0
-570 0
571 -410 -572 0
410 -571 -572 0
-571 -410 572 0
410 571 572 0
-572 0
573 -413 -574 0
413 -573 -574 0
-573 -413 574 0
413 573 574 0
-574 0
575 -416 -576 0
416 -575 -576 0
-575 -416 576 0
416 575 576 0
-576 0
577 -419 -578 0
419 -577 -578 0
-577 -419 578 0
419 577 578 0
-578 0
579 -422 -580 0
422 -579 -580 0
-579 -422 580 0
422 579 580 0
-580 0
581 -425 -582 0
425 -581 -582 0
-581 -425 582 0
425 581 582 0
-582 0
583 -428 -584 0
428 -583 -584 0
-583 -428 584 0
428 583 584 0
-584 0
585 -431 -586 0
431 -585 -586 0
-585 -431 586 0
431 585 586 0
-586 0
587 -434 -588 0
434 -587 -588 0
-587 -434 588 0
434 587 588 0
-588 0
589 -438 -590 0
438 -589 -590 0
-589 -438 590 0
438 589 590 0
-590 0
591 -441 -592 0
441 -591 -592 0
-591 -441 592 0
441 591 592 0
-592 0
593 -444 -594 0
444 -593 -594 0
-593 -444 594 0
444 593 594 0
-594 0
595 -447 -596 0
447 -595 -596 0
-595 -447 596 0
447 595 596 0
-596 0
597 -450 -598 0
450 -597 -598 0
-597 -450 598 0
450 597 598 0
-598 0
599 -453 -600 0
453 -599 -600 0
-599 -453 600 0
453 599 600 0
-600 0
601 -456 -602 0
456 -601 -602 0
-601 -456 602 0
456 601 602 0
-602 0
603 -459 -604 0
459 -603 -604 0
-603 -459 604 0
459 603 604 0
-604 0
605 -462 -606 0
462 -605 -606 0
-605 -462 606 0
462 605 606 0
-606 0
607 -608 -609 0
608 -607 -609 0
-607 -608 609 0
608 607 609 0
-609 0
610 -466 -611 0
466 -610 -611 0
-610 -466 611 0
466 610 611 0
-611 0
612 -469 -613 0
469 -612 -613 0
-612 -469 613 0
469 612 613 0
-613 0
614 -472 -615 0
472 -614 -615 0
-614 -472 615 0
472 614 615 0
-615 0
616 -475 -617 0
475 -616 -617 0
-616 -475 617 0
475 616 617 0
-617 0
618 -478 -619 0
478 -618 -619 0
-618 -478 619 0
478 618 619 0
-619 0
479 0
-481 0
483 0
-485 0
-487 0
489 0
491 0
493 0
-495 0
-498 0
500 0
503 0
505 0
-507 0
-509 0
511 0
-513 0
515 0
517 0
-519 0
-521 0
523 0
-525 0
-527 0
-529 0
531 0
-533 0
535 0
537 0
-539 0
541 0
543 0
-545 0
547 0
-549 0
-551 0
553 0
555 0
-557 0
559 0
-561 0
563 0
565 0
-567 0
-569 0
-571 0
-573 0
-575 0
577 0
-579 0
-581 0
-583 0
-585 0
-587 0
589 0
591 0
593 0
595 0
-597 0
599 0
601 0
603 0
-605 0
607 0
610 0
-612 0
614 0
-616 0
-618 0
-277 0
-280 0
-283 0
-286 0
-289 0
-292 0
-295 0
-298 0
-301 0
-302 0
-305 0
-306 0
-309 0
-312 0
-315 0
-318 0
-321 0
-324 0
-327 0
-330 0
-333 0
-336 0
340 0
-342 0
-345 0
-348 0
352 0
-354 0
358 0
-360 0
-363 0
367 0
370 0
-372 0
-375 0
-378 0
-381 0
385 0
387 0
-390 0
-393 0
-396 0
-399 0
403 0
405 0
408 0
-411 0
-414 0
-417 0
421 0
-423 0
-426 0
429 0
-432 0
-436 0
440 0
442 0
-445 0
-448 0
-451 0
455 0
-457 0
461 0
463 0
-464 0
468 0
470 0
473 0
-476 0
4 0
24 0
40 0
48 0
64 0
76 0
84 0
-88 0
-112 0
-120 0
-144 0
-164 0
-192 0
-220 0
-240 0
-248 0
-260 0
